jobs 122 
horizon 628 
PRECEDENCE:
1    
2    1
3    1
4    1
5    3
6    4
7    5
8    4
9    6
10    6
11    5
12    10
13    4
14    2
15    11
16    9
17    8
18    16
19    17
20    14
21    5
22    11
23    7
24    8
25    15
26    3
27    21
28    27
29    22
30    6
31    27
32    30
33    29
34    11
35    21
36    19
37    33
38    32
39    30
40    21
41    32
42    19
43    3
44    26
45    40
46    42
47    40
48    26
49    17
50    39
51    49
52    28
53    37
54    20
55    38 40
56    32
57    24
58    2
59    12
60    14 43
61    26
62    22 59
63    31
64    22
65    52 55
66    13
67    47 48
68    16
69    35
70    19
71    57
72    18 48
73    2
74    15
75    23 58
76    14 25 39
77    54
78    31
79    48 75
80    29
81    27
82    64 78
83    73
84    31 62 79
85    13 46
86    12
87    60 80
88    57
89    52
90    71
91    34 76 83
92    81 89
93    50 90
94    74 86
95    77
96    67 70 92
97    33 69 91
98    56 61 65
99    12 91
100    20 45 88
101    8
102    96 99
103    60
104    20
105    85 101
106    82 104
107    30 100 105
108    67 84 103
109    39 95 98
110    44
111    87 103 105
112    17 53 97
113    107 108 111
114    33 35 100
115    72 110 114
116    41 51 115
117    106 113 116
118    63 94 112
119    15 109 117
120    36 66 68
121    93 102 118
122    119 120 121
RESOURCEAVAILABILITY 16
REQUESTS/DURATIONS: 
 1 0 0 
 2 7 0 
 3 1 7 
 4 1 0 
 5 10 0 
 6 9 0 
 7 5 0 
 8 8 0 
 9 2 0 
 10 10 10 
 11 1 0 
 12 4 4 
 13 6 0 
 14 2 0 
 15 8 0 
 16 4 0 
 17 4 9 
 18 1 0 
 19 3 1 
 20 4 0 
 21 1 0 
 22 8 0 
 23 2 0 
 24 8 8 
 25 7 10 
 26 4 8 
 27 3 1 
 28 7 8 
 29 9 0 
 30 1 0 
 31 4 0 
 32 3 0 
 33 1 2 
 34 3 0 
 35 5 0 
 36 5 10 
 37 2 0 
 38 6 0 
 39 10 0 
 40 3 0 
 41 8 0 
 42 7 2 
 43 5 0 
 44 6 0 
 45 10 0 
 46 8 0 
 47 5 0 
 48 5 0 
 49 7 0 
 50 10 0 
 51 1 0 
 52 7 0 
 53 7 0 
 54 8 0 
 55 6 0 
 56 9 0 
 57 6 0 
 58 5 0 
 59 4 0 
 60 4 0 
 61 1 0 
 62 4 0 
 63 6 0 
 64 2 0 
 65 10 0 
 66 8 0 
 67 2 0 
 68 10 0 
 69 10 0 
 70 3 0 
 71 2 0 
 72 1 0 
 73 2 4 
 74 8 0 
 75 8 0 
 76 8 0 
 77 7 0 
 78 8 0 
 79 9 4 
 80 6 0 
 81 4 0 
 82 5 9 
 83 3 0 
 84 2 0 
 85 8 0 
 86 1 0 
 87 10 9 
 88 1 0 
 89 4 6 
 90 1 0 
 91 4 0 
 92 8 0 
 93 6 0 
 94 7 7 
 95 2 0 
 96 3 2 
 97 9 0 
 98 3 0 
 99 2 1 
100 1 0 
101 8 0 
102 9 0 
103 6 0 
104 4 0 
105 1 0 
106 9 0 
107 4 9 
108 7 0 
109 5 8 
110 7 0 
111 7 4 
112 5 6 
113 6 1 
114 7 8 
115 1 0 
116 9 10 
117 4 4 
118 4 0 
119 8 9 
120 1 0 
121 7 0 
122 0 0 
